objective value:                                    5
delta[1,59]*                                        9 	(obj:0)
delta[1,68]*                        0.999999999999999 	(obj:5)
delta[0,70]*                                       10 	(obj:0)
mu[1,59,148]*                        1.98088522301846 	(obj:0)
mu[1,59,162]*                      0.0169864262744935 	(obj:0)
mu[1,59,173]*                        0.23780867025501 	(obj:0)
mu[1,59,183]*                        1.31824764335043 	(obj:0)
mu[1,59,207]*                       0.104528042407657 	(obj:0)
mu[1,59,213]*                        0.16871355125858 	(obj:0)
mu[1,59,225]*                        1.58999169594956 	(obj:0)
mu[1,59,231]*                        0.73164952423124 	(obj:0)
mu[1,68,246]*                       0.703428023187569 	(obj:0)
mu[0,70,248]*                                      10 	(obj:0)
mu[1,59,251]*                       0.694836851253983 	(obj:0)
mu[1,59,263]*                        2.15635237200059 	(obj:0)
